25
1 0 5
2 0 2
2 1 2
3 0 2
3 1 1
3 2 2
4 0 5
4 1 5
4 2 3
4 3 5
5 0 2
5 1 3
5 2 5
5 3 4
5 4 3
6 0 2
6 1 4
6 2 4
6 3 2
6 4 4
6 5 5
7 0 1
7 1 2
7 2 4
7 3 1
7 4 2
7 5 4
7 6 2
8 0 3
8 1 5
8 2 2
8 3 3
8 4 5
8 5 3
8 6 2
8 7 2
9 0 1
9 1 4
9 2 4
9 3 2
9 4 3
9 5 2
9 6 3
9 7 4
9 8 3
10 0 2
10 1 2
10 2 4
10 3 4
10 4 1
10 5 1
10 6 2
10 7 4
10 8 3
10 9 4
11 0 3
11 1 1
11 2 1
11 3 2
11 4 4
11 5 3
11 6 5
11 7 5
11 8 3
11 9 2
11 10 4
12 0 5
12 1 3
12 2 1
12 3 5
12 4 1
12 5 5
12 6 4
12 7 4
12 8 2
12 9 4
12 10 4
12 11 5
13 0 1
13 1 3
13 2 2
13 3 2
13 4 3
13 5 4
13 6 5
13 7 4
13 8 3
13 9 5
13 10 3
13 11 5
13 12 3
14 0 3
14 1 5
14 2 4
14 3 2
14 4 3
14 5 1
14 6 5
14 7 5
14 8 5
14 9 1
14 10 2
14 11 3
14 12 3
14 13 2
15 0 3
15 1 5
15 2 2
15 3 4
15 4 3
15 5 3
15 6 4
15 7 1
15 8 5
15 9 2
15 10 5
15 11 5
15 12 1
15 13 3
15 14 3
16 0 3
16 1 3
16 2 1
16 3 3
16 4 3
16 5 3
16 6 5
16 7 1
16 8 4
16 9 5
16 10 1
16 11 5
16 12 2
16 13 2
16 14 3
16 15 1
17 0 2
17 1 1
17 2 5
17 3 2
17 4 4
17 5 5
17 6 3
17 7 2
17 8 5
17 9 1
17 10 3
17 11 5
17 12 1
17 13 5
17 14 1
17 15 3
17 16 1
18 0 2
18 1 4
18 2 2
18 3 5
18 4 4
18 5 5
18 6 5
18 7 1
18 8 4
18 9 4
18 10 2
18 11 5
18 12 3
18 13 1
18 14 2
18 15 4
18 16 1
18 17 1
19 0 4
19 1 2
19 2 4
19 3 3
19 4 5
19 5 4
19 6 4
19 7 2
19 8 3
19 9 5
19 10 3
19 11 3
19 12 2
19 13 4
19 14 4
19 15 1
19 16 2
19 17 3
19 18 2
20 0 1
20 1 2
20 2 5
20 3 4
20 4 1
20 5 1
20 6 5
20 7 3
20 8 5
20 9 3
20 10 5
20 11 2
20 12 5
20 13 3
20 14 3
20 15 4
20 16 2
20 17 2
20 18 3
20 19 5
21 0 3
21 1 3
21 2 3
21 3 4
21 4 4
21 5 2
21 6 4
21 7 4
21 8 2
21 9 4
21 10 2
21 11 1
21 12 2
21 13 4
21 14 5
21 15 1
21 16 3
21 17 3
21 18 2
21 19 2
21 20 5
22 0 1
22 1 4
22 2 5
22 3 5
22 4 4
22 5 4
22 6 3
22 7 2
22 8 4
22 9 3
22 10 4
22 11 4
22 12 3
22 13 5
22 14 5
22 15 1
22 16 1
22 17 3
22 18 5
22 19 5
22 20 5
22 21 4
23 0 1
23 1 3
23 2 3
23 3 1
23 4 3
23 5 1
23 6 3
23 7 3
23 8 4
23 9 2
23 10 5
23 11 2
23 12 2
23 13 4
23 14 4
23 15 4
23 16 2
23 17 2
23 18 1
23 19 4
23 20 2
23 21 5
23 22 2
24 0 2
24 1 5
24 2 2
24 3 3
24 4 2
24 5 2
24 6 3
24 7 4
24 8 2
24 9 3
24 10 5
24 11 3
24 12 4
24 13 5
24 14 1
24 15 5
24 16 3
24 17 3
24 18 3
24 19 4
24 20 2
24 21 3
24 22 2
24 23 5
